\ENCODING=ISO-8859-1
\Problem name: ilog.cplex

Maximize
 obj: 766 x(0)#0 + 1008 x(1)#1 + 518 x(2)#2 + 850 x(3)#3 + 476 x(4)#4
      + 756 x(5)#5 + 622 x(6)#6 + 766 x(7)#7 + 931 x(8)#8 + 838 x(9)#9
      + 851 x(10)#10 + 571 x(11)#11 + 833 x(12)#12 + 854 x(13)#13
      + 289 x(14)#14 + 400 x(15)#15 + 744 x(16)#16 + 689 x(17)#17
      + 847 x(18)#18 + 660 x(19)#19 + 884 x(20)#20 + 1019 x(21)#21
      + 761 x(22)#22 + 521 x(23)#23 + 902 x(24)#24 + 466 x(25)#25
      + 621 x(26)#26 + 977 x(27)#27 + 853 x(28)#28 + 696 x(29)#29
      + 632 x(30)#30 + 657 x(31)#31 + 791 x(32)#32 + 430 x(33)#33
      + 994 x(34)#34 + 719 x(35)#35 + 862 x(36)#36 + 507 x(37)#37
      + 689 x(38)#38 + 703 x(39)#39 + 756 x(40)#40 + 667 x(41)#41
      + 841 x(42)#42 + 781 x(43)#43 + 872 x(44)#44 + 867 x(45)#45
      + 938 x(46)#46 + 550 x(47)#47 + 1034 x(48)#48 + 607 x(49)#49
      + 892 x(50)#50 + 362 x(51)#51 + 952 x(52)#52 + 809 x(53)#53
      + 847 x(54)#54 + 967 x(55)#55 + 883 x(56)#56 + 493 x(57)#57
      + 581 x(58)#58 + 449 x(59)#59 + 622 x(60)#60 + 842 x(61)#61
      + 632 x(62)#62 + 594 x(63)#63 + 793 x(64)#64 + 703 x(65)#65
      + 884 x(66)#66 + 421 x(67)#67 + 861 x(68)#68 + 583 x(69)#69
      + 785 x(70)#70 + 799 x(71)#71 + 893 x(72)#72 + 449 x(73)#73
      + 961 x(74)#74 + 923 x(75)#75 + 485 x(76)#76 + 793 x(77)#77
      + 761 x(78)#78 + 577 x(79)#79 + 869 x(80)#80 + 511 x(81)#81
      + 753 x(82)#82 + 743 x(83)#83 + 704 x(84)#84 + 652 x(85)#85
      + 1050 x(86)#86 + 537 x(87)#87 + 802 x(88)#88 + 524 x(89)#89
      + 400 x(90)#90 + 629 x(91)#91 + 903 x(92)#92 + 1014 x(93)#93
      + 930 x(94)#94 + 538 x(95)#95 + 513 x(96)#96 + 552 x(97)#97
      + 564 x(98)#98 + 918 x(99)#99 + 305 x(100)#100 + 667 x(101)#101
      + 780 x(102)#102 + 622 x(103)#103 + 876 x(104)#104 + 390 x(105)#105
      + 642 x(106)#106 + 873 x(107)#107 + 920 x(108)#108 + 580 x(109)#109
      + 742 x(110)#110 + 697 x(111)#111 + 767 x(112)#112 + 837 x(113)#113
      + 631 x(114)#114 + 931 x(115)#115 + 939 x(116)#116 + 274 x(117)#117
      + 605 x(118)#118 + 793 x(119)#119 + 408 x(120)#120 + 522 x(121)#121
      + 627 x(122)#122 + 891 x(123)#123 + 492 x(124)#124 + 517 x(125)#125
      + 454 x(126)#126 + 842 x(127)#127 + 1010 x(128)#128 + 893 x(129)#129
      + 935 x(130)#130 + 484 x(131)#131 + 927 x(132)#132 + 901 x(133)#133
      + 750 x(134)#134 + 1151 x(135)#135 + 902 x(136)#136 + 652 x(137)#137
      + 1085 x(138)#138 + 632 x(139)#139 + 747 x(140)#140 + 916 x(141)#141
      + 597 x(142)#142 + 995 x(143)#143 + 798 x(144)#144 + 707 x(145)#145
      + 853 x(146)#146 + 760 x(147)#147 + 736 x(148)#148 + 809 x(149)#149
      + 524 x(150)#150 + 399 x(151)#151 + 665 x(152)#152 + 875 x(153)#153
      + 361 x(154)#154 + 765 x(155)#155 + 697 x(156)#156 + 643 x(157)#157
      + 973 x(158)#158 + 451 x(159)#159 + 576 x(160)#160 + 1157 x(161)#161
      + 912 x(162)#162 + 544 x(163)#163 + 487 x(164)#164 + 947 x(165)#165
      + 660 x(166)#166 + 795 x(167)#167 + 693 x(168)#168 + 714 x(169)#169
      + 523 x(170)#170 + 702 x(171)#171 + 865 x(172)#172 + 865 x(173)#173
      + 666 x(174)#174 + 941 x(175)#175 + 781 x(176)#176 + 680 x(177)#177
      + 826 x(178)#178 + 791 x(179)#179 + 642 x(180)#180 + 829 x(181)#181
      + 487 x(182)#182 + 474 x(183)#183 + 534 x(184)#184 + 460 x(185)#185
      + 735 x(186)#186 + 599 x(187)#187 + 730 x(188)#188 + 486 x(189)#189
      + 781 x(190)#190 + 502 x(191)#191 + 636 x(192)#192 + 582 x(193)#193
      + 988 x(194)#194 + 762 x(195)#195 + 453 x(196)#196 + 530 x(197)#197
      + 984 x(198)#198 + 839 x(199)#199 + 904 x(200)#200 + 683 x(201)#201
      + 943 x(202)#202 + 1089 x(203)#203 + 1086 x(204)#204 + 1010 x(205)#205
      + 1007 x(206)#206 + 757 x(207)#207 + 715 x(208)#208 + 736 x(209)#209
      + 811 x(210)#210 + 687 x(211)#211 + 1034 x(212)#212 + 779 x(213)#213
      + 618 x(214)#214 + 597 x(215)#215 + 922 x(216)#216 + 943 x(217)#217
      + 660 x(218)#218 + 889 x(219)#219 + 824 x(220)#220 + 838 x(221)#221
      + 449 x(222)#222 + 820 x(223)#223 + 502 x(224)#224 + 783 x(225)#225
      + 915 x(226)#226 + 622 x(227)#227 + 820 x(228)#228 + 611 x(229)#229
      + 1050 x(230)#230 + 1070 x(231)#231 + 779 x(232)#232 + 470 x(233)#233
      + 915 x(234)#234 + 605 x(235)#235 + 761 x(236)#236 + 501 x(237)#237
      + 939 x(238)#238 + 433 x(239)#239 + 465 x(240)#240 + 913 x(241)#241
      + 1049 x(242)#242 + 551 x(243)#243 + 894 x(244)#244 + 830 x(245)#245
      + 887 x(246)#246 + 857 x(247)#247 + 546 x(248)#248 + 919 x(249)#249
Subject To
 c1: 870 x(0)#0 + 851 x(1)#1 + 309 x(2)#2 + 525 x(3)#3 + 77 x(4)#4 + 329 x(5)#5
     + 103 x(6)#6 + 341 x(7)#7 + 600 x(8)#8 + 816 x(9)#9 + 421 x(10)#10
     + 846 x(11)#11 + 582 x(12)#12 + 193 x(13)#13 + 363 x(14)#14 + 148 x(15)#15
     + 522 x(16)#16 + 738 x(17)#17 + 792 x(18)#18 + 558 x(19)#19 + 569 x(20)#20
     + 2 x(21)#21 + 152 x(22)#22 + 387 x(23)#23 + 845 x(24)#24 + 711 x(25)#25
     + 13 x(26)#26 + 527 x(27)#27 + 639 x(28)#28 + 536 x(29)#29 + 684 x(30)#30
     + 442 x(31)#31 + 255 x(32)#32 + 234 x(33)#33 + 489 x(34)#34 + 380 x(35)#35
     + 931 x(36)#36 + 75 x(37)#37 + 162 x(38)#38 + 771 x(39)#39 + 569 x(40)#40
     + 808 x(41)#41 + 980 x(42)#42 + 264 x(43)#43 + 988 x(44)#44 + 879 x(45)#45
     + 855 x(46)#46 + 301 x(47)#47 + 896 x(48)#48 + 212 x(49)#49 + 522 x(50)#50
     + 31 x(51)#51 + 534 x(52)#52 + 35 x(53)#53 + 775 x(54)#54 + 651 x(55)#55
     + 406 x(56)#56 + 458 x(57)#57 + 85 x(58)#58 + 34 x(59)#59 + 72 x(60)#60
     + 892 x(61)#61 + 560 x(62)#62 + 188 x(63)#63 + 688 x(64)#64 + 21 x(65)#65
     + 368 x(66)#66 + 126 x(67)#67 + 237 x(68)#68 + 713 x(69)#69 + 331 x(70)#70
     + 739 x(71)#71 + 400 x(72)#72 + 139 x(73)#73 + 891 x(74)#74 + 491 x(75)#75
     + 276 x(76)#76 + 311 x(77)#77 + 320 x(78)#78 + 150 x(79)#79 + 738 x(80)#80
     + 934 x(81)#81 + 212 x(82)#82 + 527 x(83)#83 + 370 x(84)#84 + 188 x(85)#85
     + 297 x(86)#86 + 505 x(87)#87 + 289 x(88)#88 + 899 x(89)#89 + 282 x(90)#90
     + 410 x(91)#91 + 221 x(92)#92 + 606 x(93)#93 + 700 x(94)#94 + 329 x(95)#95
     + 145 x(96)#96 + 133 x(97)#97 + 475 x(98)#98 + 17 x(99)#99
     + 257 x(100)#100 + 531 x(101)#101 + 715 x(102)#102 + 779 x(103)#103
     + 29 x(104)#104 + 24 x(105)#105 + 517 x(106)#106 + 446 x(107)#107
     + 117 x(108)#108 + 352 x(109)#109 + 214 x(110)#110 + 262 x(111)#111
     + 985 x(112)#112 + 64 x(113)#113 + 558 x(114)#114 + 132 x(115)#115
     + 37 x(116)#116 + 332 x(117)#117 + 29 x(118)#118 + 891 x(119)#119
     + 78 x(120)#120 + 643 x(121)#121 + 214 x(122)#122 + 717 x(123)#123
     + 680 x(124)#124 + 436 x(125)#125 + 385 x(126)#126 + 153 x(127)#127
     + 827 x(128)#128 + 433 x(129)#129 + 905 x(130)#130 + 439 x(131)#131
     + 721 x(132)#132 + 520 x(133)#133 + 602 x(134)#134 + 405 x(135)#135
     + 616 x(136)#136 + 464 x(137)#137 + 944 x(138)#138 + 336 x(139)#139
     + 792 x(140)#140 + 962 x(141)#141 + 104 x(142)#142 + 180 x(143)#143
     + 563 x(144)#144 + 12 x(145)#145 + 751 x(146)#146 + 527 x(147)#147
     + 407 x(148)#148 + 812 x(149)#149 + 468 x(150)#150 + 194 x(151)#151
     + 974 x(152)#152 + 849 x(153)#153 + 215 x(154)#154 + 381 x(155)#155
     + 416 x(156)#156 + 617 x(157)#157 + 6 x(158)#158 + 460 x(159)#159
     + 389 x(160)#160 + 409 x(161)#161 + 715 x(162)#162 + 598 x(163)#163
     + 36 x(164)#164 + 72 x(165)#165 + 391 x(166)#166 + 871 x(167)#167
     + 10 x(168)#168 + 778 x(169)#169 + 293 x(170)#170 + 267 x(171)#171
     + 419 x(172)#172 + 574 x(173)#173 + 438 x(174)#174 + 657 x(175)#175
     + 858 x(176)#176 + 271 x(177)#177 + 248 x(178)#178 + 985 x(179)#179
     + 585 x(180)#180 + 835 x(181)#181 + 150 x(182)#182 + 5 x(183)#183
     + 471 x(184)#184 + 461 x(185)#185 + 422 x(186)#186 + 184 x(187)#187
     + 397 x(188)#188 + 474 x(189)#189 + 836 x(190)#190 + 490 x(191)#191
     + 406 x(192)#192 + 262 x(193)#193 + 761 x(194)#194 + 599 x(195)#195
     + 378 x(196)#196 + 748 x(197)#197 + 595 x(198)#198 + 411 x(199)#199
     + 745 x(200)#200 + 303 x(201)#201 + 180 x(202)#202 + 701 x(203)#203
     + 888 x(204)#204 + 484 x(205)#205 + 82 x(206)#206 + 726 x(207)#207
     + 637 x(208)#208 + 587 x(209)#209 + 769 x(210)#210 + 368 x(211)#211
     + 50 x(212)#212 + 778 x(213)#213 + 330 x(214)#214 + 662 x(215)#215
     + 683 x(216)#216 + 208 x(217)#217 + 698 x(218)#218 + 968 x(219)#219
     + 967 x(220)#220 + 41 x(221)#221 + 27 x(222)#222 + 995 x(223)#223
     + 144 x(224)#224 + 279 x(225)#225 + 859 x(226)#226 + 602 x(227)#227
     + 227 x(228)#228 + 43 x(229)#229 + 142 x(230)#230 + 695 x(231)#231
     + 47 x(232)#232 + 390 x(233)#233 + 716 x(234)#234 + 392 x(235)#235
     + 693 x(236)#236 + 458 x(237)#237 + 10 x(238)#238 + 89 x(239)#239
     + 196 x(240)#240 + 488 x(241)#241 + 530 x(242)#242 + 669 x(243)#243
     + 585 x(244)#244 + 487 x(245)#245 + 609 x(246)#246 + 476 x(247)#247
     + 177 x(248)#248 + 369 x(249)#249 <= 86054
 c2: 404 x(0)#0 + 235 x(1)#1 + 6 x(2)#2 + 286 x(3)#3 + 146 x(4)#4 + 167 x(5)#5
     + 91 x(6)#6 + 765 x(7)#7 + 624 x(8)#8 + 895 x(9)#9 + 903 x(10)#10
     + 86 x(11)#11 + 304 x(12)#12 + 676 x(13)#13 + 363 x(14)#14 + 248 x(15)#15
     + 46 x(16)#16 + 290 x(17)#17 + 404 x(18)#18 + 363 x(19)#19 + 79 x(20)#20
     + 195 x(21)#21 + 447 x(22)#22 + 589 x(23)#23 + 10 x(24)#24 + 472 x(25)#25
     + 816 x(26)#26 + 677 x(27)#27 + 467 x(28)#28 + 503 x(29)#29 + 513 x(30)#30
     + 9 x(31)#31 + 932 x(32)#32 + 546 x(33)#33 + 771 x(34)#34 + 808 x(35)#35
     + 339 x(36)#36 + 478 x(37)#37 + 189 x(38)#38 + 343 x(39)#39 + 401 x(40)#40
     + 358 x(41)#41 + 567 x(42)#42 + 172 x(43)#43 + 304 x(44)#44 + 978 x(45)#45
     + 61 x(46)#46 + 796 x(47)#47 + 809 x(48)#48 + 868 x(49)#49 + 893 x(50)#50
     + 532 x(51)#51 + 793 x(52)#52 + 468 x(53)#53 + 63 x(54)#54 + 986 x(55)#55
     + 185 x(56)#56 + 185 x(57)#57 + 135 x(58)#58 + 458 x(59)#59 + 32 x(60)#60
     + 238 x(61)#61 + 635 x(62)#62 + 975 x(63)#63 + 705 x(64)#64 + 590 x(65)#65
     + 517 x(66)#66 + 607 x(67)#67 + 932 x(68)#68 + 71 x(69)#69 + 768 x(70)#70
     + 653 x(71)#71 + 334 x(72)#72 + 463 x(73)#73 + 914 x(74)#74 + 765 x(75)#75
     + 406 x(76)#76 + 506 x(77)#77 + 966 x(78)#78 + 810 x(79)#79 + 911 x(80)#80
     + 726 x(81)#81 + 334 x(82)#82 + 936 x(83)#83 + 999 x(84)#84 + 77 x(85)#85
     + 867 x(86)#86 + 96 x(87)#87 + 297 x(88)#88 + 112 x(89)#89 + 308 x(90)#90
     + 878 x(91)#91 + 775 x(92)#92 + 691 x(93)#93 + 248 x(94)#94 + 900 x(95)#95
     + 341 x(96)#96 + 877 x(97)#97 + 340 x(98)#98 + 388 x(99)#99
     + 133 x(100)#100 + 836 x(101)#101 + 146 x(102)#102 + 352 x(103)#103
     + 758 x(104)#104 + 42 x(105)#105 + 480 x(106)#106 + 266 x(107)#107
     + 828 x(108)#108 + 602 x(109)#109 + 588 x(110)#110 + 315 x(111)#111
     + 982 x(112)#112 + 824 x(113)#113 + 280 x(114)#114 + 708 x(115)#115
     + 730 x(116)#116 + 396 x(117)#117 + 138 x(118)#118 + 886 x(119)#119
     + 616 x(120)#120 + 149 x(121)#121 + 409 x(122)#122 + 690 x(123)#123
     + 121 x(124)#124 + 309 x(125)#125 + 670 x(126)#126 + 735 x(127)#127
     + 253 x(128)#128 + 280 x(129)#129 + 712 x(130)#130 + 487 x(131)#131
     + 727 x(132)#132 + 403 x(133)#133 + 101 x(134)#134 + 952 x(135)#135
     + 578 x(136)#136 + 55 x(137)#137 + 873 x(138)#138 + 707 x(139)#139
     + 896 x(140)#140 + 587 x(141)#141 + 897 x(142)#142 + 886 x(143)#143
     + 455 x(144)#144 + 714 x(145)#145 + 284 x(146)#146 + 690 x(147)#147
     + 361 x(148)#148 + 778 x(149)#149 + 614 x(150)#150 + 573 x(151)#151
     + 143 x(152)#152 + 247 x(153)#153 + 44 x(154)#154 + 741 x(155)#155
     + 69 x(156)#156 + 283 x(157)#157 + 751 x(158)#158 + 680 x(159)#159
     + 124 x(160)#160 + 799 x(161)#161 + 337 x(162)#162 + 174 x(163)#163
     + 218 x(164)#164 + 614 x(165)#165 + 329 x(166)#166 + 676 x(167)#167
     + 426 x(168)#168 + 518 x(169)#169 + 5 x(170)#170 + 55 x(171)#171
     + 819 x(172)#172 + 525 x(173)#173 + 548 x(174)#174 + 116 x(175)#175
     + 257 x(176)#176 + 308 x(177)#177 + 41 x(178)#178 + 50 x(179)#179
     + 686 x(180)#180 + 551 x(181)#181 + 719 x(182)#182 + 692 x(183)#183
     + 142 x(184)#184 + 792 x(185)#185 + 199 x(186)#186 + 583 x(187)#187
     + 36 x(188)#188 + 318 x(189)#189 + 490 x(190)#190 + 488 x(191)#191
     + 128 x(192)#192 + 26 x(193)#193 + 64 x(194)#194 + 124 x(195)#195
     + 150 x(196)#196 + 515 x(197)#197 + 212 x(198)#198 + 68 x(199)#199
     + 429 x(200)#200 + 574 x(201)#201 + 861 x(202)#202 + 678 x(203)#203
     + 685 x(204)#204 + 223 x(205)#205 + 885 x(206)#206 + 452 x(207)#207
     + 813 x(208)#208 + 110 x(209)#209 + 247 x(210)#210 + 963 x(211)#211
     + 607 x(212)#212 + 786 x(213)#213 + 331 x(214)#214 + 331 x(215)#215
     + 140 x(216)#216 + 919 x(217)#217 + 162 x(218)#218 + 169 x(219)#219
     + 782 x(220)#220 + 791 x(221)#221 + 808 x(222)#222 + 231 x(223)#223
     + 938 x(224)#224 + 609 x(225)#225 + 507 x(226)#226 + 406 x(227)#227
     + 786 x(228)#228 + 203 x(229)#229 + 591 x(230)#230 + 761 x(231)#231
     + 284 x(232)#232 + 729 x(233)#233 + 32 x(234)#234 + 113 x(235)#235
     + 461 x(236)#236 + 163 x(237)#237 + 476 x(238)#238 + 287 x(239)#239
     + 43 x(240)#240 + 984 x(241)#241 + 975 x(242)#242 + 701 x(243)#243
     + 140 x(244)#244 + 533 x(245)#245 + 252 x(246)#246 + 827 x(247)#247
     + 162 x(248)#248 + 963 x(249)#249 <= 90090
 c3: 987 x(0)#0 + 619 x(1)#1 + 483 x(2)#2 + 820 x(3)#3 + 383 x(4)#4
     + 460 x(5)#5 + 258 x(6)#6 + 860 x(7)#7 + 892 x(8)#8 + 566 x(9)#9
     + 199 x(10)#10 + 911 x(11)#11 + 531 x(12)#12 + 330 x(13)#13 + 111 x(14)#14
     + 309 x(15)#15 + 110 x(16)#16 + 63 x(17)#17 + 532 x(18)#18 + 104 x(19)#19
     + 42 x(20)#20 + 868 x(21)#21 + 898 x(22)#22 + 386 x(23)#23 + 831 x(24)#24
     + 241 x(25)#25 + 487 x(26)#26 + 511 x(27)#27 + 505 x(28)#28 + 836 x(29)#29
     + 263 x(30)#30 + 550 x(31)#31 + 875 x(32)#32 + 220 x(33)#33 + 194 x(34)#34
     + 502 x(35)#35 + 281 x(36)#36 + 583 x(37)#37 + 519 x(38)#38 + 914 x(39)#39
     + 746 x(40)#40 + 12 x(41)#41 + 645 x(42)#42 + 917 x(43)#43 + 247 x(44)#44
     + 975 x(45)#45 + 598 x(46)#46 + 4 x(47)#47 + 599 x(48)#48 + 400 x(49)#49
     + 857 x(50)#50 + 246 x(51)#51 + 526 x(52)#52 + 227 x(53)#53 + 595 x(54)#54
     + 132 x(55)#55 + 497 x(56)#56 + 190 x(57)#57 + 190 x(58)#58 + 256 x(59)#59
     + 266 x(60)#60 + 28 x(61)#61 + 229 x(62)#62 + 662 x(63)#63 + 795 x(64)#64
     + 660 x(65)#65 + 852 x(66)#66 + 445 x(67)#67 + 556 x(68)#68 + 488 x(69)#69
     + 186 x(70)#70 + 501 x(71)#71 + 669 x(72)#72 + 551 x(73)#73 + 259 x(74)#74
     + 174 x(75)#75 + 179 x(76)#76 + 145 x(77)#77 + 928 x(78)#78 + 860 x(79)#79
     + 235 x(80)#80 + 398 x(81)#81 + 582 x(82)#82 + 532 x(83)#83 + 328 x(84)#84
     + 413 x(85)#85 + 846 x(86)#86 + 397 x(87)#87 + 260 x(88)#88 + 861 x(89)#89
     + 441 x(90)#90 + 207 x(91)#91 + 239 x(92)#92 + 398 x(93)#93 + 874 x(94)#94
     + 413 x(95)#95 + 90 x(96)#96 + 796 x(97)#97 + 505 x(98)#98 + 929 x(99)#99
     + 186 x(100)#100 + 153 x(101)#101 + 987 x(102)#102 + 476 x(103)#103
     + 566 x(104)#104 + 695 x(105)#105 + 522 x(106)#106 + 914 x(107)#107
     + 688 x(108)#108 + 72 x(109)#109 + 14 x(110)#110 + 55 x(111)#111
     + 363 x(112)#112 + 494 x(113)#113 + 193 x(114)#114 + 884 x(115)#115
     + 1000 x(116)#116 + 26 x(117)#117 + 859 x(118)#118 + 415 x(119)#119
     + 176 x(120)#120 + 197 x(121)#121 + 546 x(122)#122 + 318 x(123)#123
     + 976 x(124)#124 + 951 x(125)#125 + 278 x(126)#126 + 505 x(127)#127
     + 104 x(128)#128 + 187 x(129)#129 + 848 x(130)#130 + 978 x(131)#131
     + 603 x(132)#132 + 31 x(133)#133 + 609 x(134)#134 + 750 x(135)#135
     + 948 x(136)#136 + 357 x(137)#137 + 330 x(138)#138 + 41 x(139)#139
     + 588 x(140)#140 + 307 x(141)#141 + 335 x(142)#142 + 283 x(143)#143
     + 165 x(144)#144 + 66 x(145)#145 + 594 x(146)#146 + 196 x(147)#147
     + 86 x(148)#148 + 448 x(149)#149 + 337 x(150)#150 + 81 x(151)#151
     + 141 x(152)#152 + 78 x(153)#153 + 223 x(154)#154 + 747 x(155)#155
     + 790 x(156)#156 + 482 x(157)#157 + 715 x(158)#158 + 235 x(159)#159
     + 789 x(160)#160 + 490 x(161)#161 + 994 x(162)#162 + 360 x(163)#163
     + 157 x(164)#164 + 204 x(165)#165 + 77 x(166)#166 + 901 x(167)#167
     + 630 x(168)#168 + 616 x(169)#169 + 459 x(170)#170 + 739 x(171)#171
     + 921 x(172)#172 + 650 x(173)#173 + 796 x(174)#174 + 441 x(175)#175
     + 363 x(176)#176 + 121 x(177)#177 + 571 x(178)#178 + 574 x(179)#179
     + 50 x(180)#180 + 618 x(181)#181 + 321 x(182)#182 + 346 x(183)#183
     + 659 x(184)#184 + 249 x(185)#185 + 73 x(186)#186 + 400 x(187)#187
     + 912 x(188)#188 + 332 x(189)#189 + 559 x(190)#190 + 724 x(191)#191
     + 938 x(192)#192 + 832 x(193)#193 + 863 x(194)#194 + 819 x(195)#195
     + 193 x(196)#196 + 464 x(197)#197 + 839 x(198)#198 + 559 x(199)#199
     + 966 x(200)#200 + 953 x(201)#201 + 796 x(202)#202 + 864 x(203)#203
     + 109 x(204)#204 + 990 x(205)#205 + 637 x(206)#206 + 714 x(207)#207
     + 516 x(208)#208 + 604 x(209)#209 + 250 x(210)#210 + 632 x(211)#211
     + 581 x(212)#212 + 717 x(213)#213 + 738 x(214)#214 + 59 x(215)#215
     + 235 x(216)#216 + 694 x(217)#217 + 271 x(218)#218 + 155 x(219)#219
     + 29 x(220)#220 + 399 x(221)#221 + 379 x(222)#222 + 754 x(223)#223
     + 109 x(224)#224 + 973 x(225)#225 + 94 x(226)#226 + 539 x(227)#227
     + 440 x(228)#228 + 922 x(229)#229 + 678 x(230)#230 + 718 x(231)#231
     + 916 x(232)#232 + 15 x(233)#233 + 878 x(234)#234 + 552 x(235)#235
     + 339 x(236)#236 + 694 x(237)#237 + 826 x(238)#238 + 644 x(239)#239
     + 489 x(240)#240 + 626 x(241)#241 + 175 x(242)#242 + 195 x(243)#243
     + 750 x(244)#244 + 787 x(245)#245 + 390 x(246)#246 + 357 x(247)#247
     + 748 x(248)#248 + 27 x(249)#249 <= 92091
 c4: 714 x(0)#0 + 333 x(1)#1 + 752 x(2)#2 + 595 x(3)#3 + 774 x(4)#4
     + 934 x(5)#5 + 240 x(6)#6 + 842 x(7)#7 + 136 x(8)#8 + 984 x(9)#9
     + 153 x(10)#10 + 474 x(11)#11 + 571 x(12)#12 + 728 x(13)#13 + 510 x(14)#14
     + 386 x(15)#15 + 656 x(16)#16 + 378 x(17)#17 + 712 x(18)#18 + 219 x(19)#19
     + 826 x(20)#20 + 904 x(21)#21 + 752 x(22)#22 + 164 x(23)#23 + 540 x(24)#24
     + 296 x(25)#25 + 621 x(26)#26 + 348 x(27)#27 + 267 x(28)#28 + 806 x(29)#29
     + 382 x(30)#30 + 731 x(31)#31 + 874 x(32)#32 + 302 x(33)#33 + 678 x(34)#34
     + 382 x(35)#35 + 609 x(36)#36 + 696 x(37)#37 + 802 x(38)#38 + 535 x(39)#39
     + 621 x(40)#40 + 58 x(41)#41 + 204 x(42)#42 + 801 x(43)#43 + 526 x(44)#44
     + 534 x(45)#45 + 854 x(46)#46 + 283 x(47)#47 + 891 x(48)#48 + 664 x(49)#49
     + 253 x(50)#50 + 36 x(51)#51 + 366 x(52)#52 + 990 x(53)#53 + 547 x(54)#54
     + 433 x(55)#55 + 111 x(56)#56 + 477 x(57)#57 + 714 x(58)#58 + 7 x(59)#59
     + 625 x(60)#60 + 727 x(61)#61 + 625 x(62)#62 + 291 x(63)#63 + 103 x(64)#64
     + 335 x(65)#65 + 328 x(66)#66 + 243 x(67)#67 + 708 x(68)#68 + 368 x(69)#69
     + 340 x(70)#70 + 314 x(71)#71 + 525 x(72)#72 + 408 x(73)#73 + 690 x(74)#74
     + 902 x(75)#75 + 583 x(76)#76 + 440 x(77)#77 + 818 x(78)#78 + 626 x(79)#79
     + 295 x(80)#80 + 169 x(81)#81 + 211 x(82)#82 + 938 x(83)#83 + 438 x(84)#84
     + 758 x(85)#85 + 720 x(86)#86 + 746 x(87)#87 + 609 x(88)#88 + 491 x(89)#89
     + 470 x(90)#90 + 852 x(91)#91 + 986 x(92)#92 + 641 x(93)#93 + 805 x(94)#94
     + 526 x(95)#95 + 168 x(96)#96 + 214 x(97)#97 + 143 x(98)#98 + 976 x(99)#99
     + 230 x(100)#100 + 334 x(101)#101 + 236 x(102)#102 + 846 x(103)#103
     + 471 x(104)#104 + 124 x(105)#105 + 161 x(106)#106 + 25 x(107)#107
     + 741 x(108)#108 + 111 x(109)#109 + 420 x(110)#110 + 198 x(111)#111
     + 156 x(112)#112 + 700 x(113)#113 + 521 x(114)#114 + 196 x(115)#115
     + 297 x(116)#116 + 424 x(117)#117 + 425 x(118)#118 + 886 x(119)#119
     + 329 x(120)#120 + 298 x(121)#121 + 783 x(122)#122 + 60 x(123)#123
     + 132 x(124)#124 + 122 x(125)#125 + 323 x(126)#126 + 953 x(127)#127
     + 950 x(128)#128 + 932 x(129)#129 + 786 x(130)#130 + 397 x(131)#131
     + 297 x(132)#132 + 874 x(133)#133 + 412 x(134)#134 + 496 x(135)#135
     + 500 x(136)#136 + 572 x(137)#137 + 859 x(138)#138 + 971 x(139)#139
     + 569 x(140)#140 + 33 x(141)#141 + 211 x(142)#142 + 719 x(143)#143
     + 713 x(144)#144 + 739 x(145)#145 + 575 x(146)#146 + 938 x(147)#147
     + 696 x(148)#148 + 795 x(149)#149 + 886 x(150)#150 + 269 x(151)#151
     + 985 x(152)#152 + 138 x(153)#153 + 471 x(154)#154 + 822 x(155)#155
     + 879 x(156)#156 + 571 x(157)#157 + 649 x(158)#158 + 30 x(159)#159
     + 208 x(160)#160 + 761 x(161)#161 + 377 x(162)#162 + 642 x(163)#163
     + 523 x(164)#164 + 860 x(165)#165 + 394 x(166)#166 + 731 x(167)#167
     + 227 x(168)#168 + 562 x(169)#169 + 711 x(170)#170 + 92 x(171)#171
     + 594 x(172)#172 + 823 x(173)#173 + 48 x(174)#174 + 846 x(175)#175
     + 15 x(176)#176 + 508 x(177)#177 + 453 x(178)#178 + 773 x(179)#179
     + 883 x(180)#180 + 273 x(181)#181 + 165 x(182)#182 + 712 x(183)#183
     + 166 x(184)#184 + 155 x(185)#185 + 573 x(186)#186 + 883 x(187)#187
     + 237 x(188)#188 + 52 x(189)#189 + 793 x(190)#190 + 77 x(191)#191
     + 584 x(192)#192 + 109 x(193)#193 + 956 x(194)#194 + 97 x(195)#195
     + 556 x(196)#196 + 219 x(197)#197 + 784 x(198)#198 + 252 x(199)#199
     + 453 x(200)#200 + 644 x(201)#201 + 869 x(202)#202 + 291 x(203)#203
     + 610 x(204)#204 + 689 x(205)#205 + 393 x(206)#206 + 866 x(207)#207
     + 294 x(208)#208 + 441 x(209)#209 + 155 x(210)#210 + 628 x(211)#211
     + 905 x(212)#212 + 153 x(213)#213 + 96 x(214)#214 + 734 x(215)#215
     + 811 x(216)#216 + 541 x(217)#217 + 585 x(218)#218 + 538 x(219)#219
     + 780 x(220)#220 + 917 x(221)#221 + 602 x(222)#222 + 117 x(223)#223
     + 132 x(224)#224 + 200 x(225)#225 + 20 x(226)#226 + 463 x(227)#227
     + 541 x(228)#228 + 545 x(229)#229 + 949 x(230)#230 + 861 x(231)#231
     + 554 x(232)#232 + 348 x(233)#233 + 637 x(234)#234 + 952 x(235)#235
     + 670 x(236)#236 + 431 x(237)#237 + 480 x(238)#238 + 4 x(239)#239
     + 125 x(240)#240 + 712 x(241)#241 + 674 x(242)#242 + 984 x(243)#243
     + 771 x(244)#244 + 18 x(245)#245 + 653 x(246)#246 + 488 x(247)#247
     + 806 x(248)#248 + 928 x(249)#249 <= 96824
 c5: 155 x(0)#0 + 564 x(1)#1 + 813 x(2)#2 + 181 x(3)#3 + 301 x(4)#4
     + 574 x(5)#5 + 20 x(6)#6 + 929 x(7)#7 + 751 x(8)#8 + 462 x(9)#9
     + 654 x(10)#10 + 484 x(11)#11 + 634 x(12)#12 + 62 x(13)#13 + 90 x(14)#14
     + 408 x(15)#15 + 775 x(16)#16 + 548 x(17)#17 + 865 x(18)#18 + 976 x(19)#19
     + 916 x(20)#20 + 651 x(21)#21 + 37 x(22)#22 + 474 x(23)#23 + 152 x(24)#24
     + 568 x(25)#25 + 521 x(26)#26 + 350 x(27)#27 + 582 x(28)#28 + 293 x(29)#29
     + 616 x(30)#30 + 155 x(31)#31 + 924 x(32)#32 + 592 x(33)#33 + 903 x(34)#34
     + 918 x(35)#35 + 576 x(36)#36 + 273 x(37)#37 + 762 x(38)#38 + 938 x(39)#39
     + 791 x(40)#40 + 133 x(41)#41 + 799 x(42)#42 + 582 x(43)#43 + 117 x(44)#44
     + 525 x(45)#45 + 500 x(46)#46 + 73 x(47)#47 + 36 x(48)#48 + 334 x(49)#49
     + 241 x(50)#50 + 310 x(51)#51 + 613 x(52)#52 + 63 x(53)#53 + 598 x(54)#54
     + 856 x(55)#55 + 959 x(56)#56 + 429 x(57)#57 + 227 x(58)#58 + 220 x(59)#59
     + 698 x(60)#60 + 174 x(61)#61 + 353 x(62)#62 + 576 x(63)#63 + 683 x(64)#64
     + 270 x(65)#65 + 651 x(66)#66 + 559 x(67)#67 + 29 x(68)#68 + 205 x(69)#69
     + 52 x(70)#70 + 842 x(71)#71 + 235 x(72)#72 + 533 x(73)#73 + 911 x(74)#74
     + 437 x(75)#75 + 520 x(76)#76 + 325 x(77)#77 + 569 x(78)#78 + 263 x(79)#79
     + 555 x(80)#80 + 119 x(81)#81 + 647 x(82)#82 + 312 x(83)#83 + 19 x(84)#84
     + 737 x(85)#85 + 327 x(86)#86 + 728 x(87)#87 + 382 x(88)#88 + 166 x(89)#89
     + 384 x(90)#90 + 523 x(91)#91 + 426 x(92)#92 + 482 x(93)#93 + 776 x(94)#94
     + 518 x(95)#95 + 215 x(96)#96 + 263 x(97)#97 + 849 x(98)#98 + 896 x(99)#99
     + 27 x(100)#100 + 67 x(101)#101 + 234 x(102)#102 + 232 x(103)#103
     + 99 x(104)#104 + 734 x(105)#105 + 655 x(106)#106 + 779 x(107)#107
     + 266 x(108)#108 + 932 x(109)#109 + 497 x(110)#110 + 946 x(111)#111
     + 692 x(112)#112 + 190 x(113)#113 + 427 x(114)#114 + 454 x(115)#115
     + 959 x(116)#116 + 33 x(117)#117 + 89 x(118)#118 + 635 x(119)#119
     + 702 x(120)#120 + 627 x(121)#121 + 361 x(122)#122 + 820 x(123)#123
     + 188 x(124)#124 + 345 x(125)#125 + 526 x(126)#126 + 516 x(127)#127
     + 459 x(128)#128 + 555 x(129)#129 + 392 x(130)#130 + 80 x(131)#131
     + 778 x(132)#132 + 650 x(133)#133 + 462 x(134)#134 + 910 x(135)#135
     + 88 x(136)#136 + 662 x(137)#137 + 959 x(138)#138 + 158 x(139)#139
     + 387 x(140)#140 + 754 x(141)#141 + 595 x(142)#142 + 994 x(143)#143
     + 495 x(144)#144 + 692 x(145)#145 + 652 x(146)#146 + 799 x(147)#147
     + 23 x(148)#148 + 477 x(149)#149 + 164 x(150)#150 + 401 x(151)#151
     + 349 x(152)#152 + 981 x(153)#153 + 181 x(154)#154 + 960 x(155)#155
     + 322 x(156)#156 + 452 x(157)#157 + 587 x(158)#158 + 316 x(159)#159
     + 804 x(160)#160 + 912 x(161)#161 + 834 x(162)#162 + 857 x(163)#163
     + 562 x(164)#164 + 986 x(165)#165 + 70 x(166)#166 + 186 x(167)#167
     + 896 x(168)#168 + 727 x(169)#169 + 318 x(170)#170 + 792 x(171)#171
     + 915 x(172)#172 + 599 x(173)#173 + 824 x(174)#174 + 791 x(175)#175
     + 468 x(176)#176 + 16 x(177)#177 + 963 x(178)#178 + 237 x(179)#179
     + 645 x(180)#180 + 768 x(181)#181 + 175 x(182)#182 + 58 x(183)#183
     + 213 x(184)#184 + 412 x(185)#185 + 205 x(186)#186 + 685 x(187)#187
     + 931 x(188)#188 + 963 x(189)#189 + 126 x(190)#190 + 708 x(191)#191
     + 867 x(192)#192 + 121 x(193)#193 + 61 x(194)#194 + 793 x(195)#195
     + 963 x(196)#196 + 204 x(197)#197 + 43 x(198)#198 + 582 x(199)#199
     + 373 x(200)#200 + 889 x(201)#201 + 885 x(202)#202 + 415 x(203)#203
     + 795 x(204)#204 + 213 x(205)#205 + 792 x(206)#206 + 465 x(207)#207
     + 804 x(208)#208 + 874 x(209)#209 + 192 x(210)#210 + 86 x(211)#211
     + 864 x(212)#212 + 535 x(213)#213 + 163 x(214)#214 + 614 x(215)#215
     + 869 x(216)#216 + 422 x(217)#217 + 753 x(218)#218 + 796 x(219)#219
     + 423 x(220)#220 + 436 x(221)#221 + 424 x(222)#222 + 622 x(223)#223
     + 185 x(224)#224 + 283 x(225)#225 + 689 x(226)#226 + 354 x(227)#227
     + 406 x(228)#228 + 136 x(229)#229 + 708 x(230)#230 + 360 x(231)#231
     + 822 x(232)#232 + 659 x(233)#233 + 148 x(234)#234 + 428 x(235)#235
     + 201 x(236)#236 + 737 x(237)#237 + 450 x(238)#238 + 352 x(239)#239
     + 382 x(240)#240 + 227 x(241)#241 + 971 x(242)#242 + 187 x(243)#243
     + 720 x(244)#244 + 44 x(245)#245 + 48 x(246)#246 + 52 x(247)#247
     + 349 x(248)#248 + 534 x(249)#249 <= 93183
Bounds
 0 <= x(0)#0 <= 1
 0 <= x(1)#1 <= 1
 0 <= x(2)#2 <= 1
 0 <= x(3)#3 <= 1
 0 <= x(4)#4 <= 1
 0 <= x(5)#5 <= 1
 0 <= x(6)#6 <= 1
 0 <= x(7)#7 <= 1
 0 <= x(8)#8 <= 1
 0 <= x(9)#9 <= 1
 0 <= x(10)#10 <= 1
 0 <= x(11)#11 <= 1
 0 <= x(12)#12 <= 1
 0 <= x(13)#13 <= 1
 0 <= x(14)#14 <= 1
 0 <= x(15)#15 <= 1
 0 <= x(16)#16 <= 1
 0 <= x(17)#17 <= 1
 0 <= x(18)#18 <= 1
 0 <= x(19)#19 <= 1
 0 <= x(20)#20 <= 1
 0 <= x(21)#21 <= 1
 0 <= x(22)#22 <= 1
 0 <= x(23)#23 <= 1
 0 <= x(24)#24 <= 1
 0 <= x(25)#25 <= 1
 0 <= x(26)#26 <= 1
 0 <= x(27)#27 <= 1
 0 <= x(28)#28 <= 1
 0 <= x(29)#29 <= 1
 0 <= x(30)#30 <= 1
 0 <= x(31)#31 <= 1
 0 <= x(32)#32 <= 1
 0 <= x(33)#33 <= 1
 0 <= x(34)#34 <= 1
 0 <= x(35)#35 <= 1
 0 <= x(36)#36 <= 1
 0 <= x(37)#37 <= 1
 0 <= x(38)#38 <= 1
 0 <= x(39)#39 <= 1
 0 <= x(40)#40 <= 1
 0 <= x(41)#41 <= 1
 0 <= x(42)#42 <= 1
 0 <= x(43)#43 <= 1
 0 <= x(44)#44 <= 1
 0 <= x(45)#45 <= 1
 0 <= x(46)#46 <= 1
 0 <= x(47)#47 <= 1
 0 <= x(48)#48 <= 1
 0 <= x(49)#49 <= 1
 0 <= x(50)#50 <= 1
 0 <= x(51)#51 <= 1
 0 <= x(52)#52 <= 1
 0 <= x(53)#53 <= 1
 0 <= x(54)#54 <= 1
 0 <= x(55)#55 <= 1
 0 <= x(56)#56 <= 1
 0 <= x(57)#57 <= 1
 0 <= x(58)#58 <= 1
 0 <= x(59)#59 <= 1
 0 <= x(60)#60 <= 1
 0 <= x(61)#61 <= 1
 0 <= x(62)#62 <= 1
 0 <= x(63)#63 <= 1
 0 <= x(64)#64 <= 1
 0 <= x(65)#65 <= 1
 0 <= x(66)#66 <= 1
 0 <= x(67)#67 <= 1
 0 <= x(68)#68 <= 1
 0 <= x(69)#69 <= 1
 0 <= x(70)#70 <= 1
 0 <= x(71)#71 <= 1
 0 <= x(72)#72 <= 1
 0 <= x(73)#73 <= 1
 0 <= x(74)#74 <= 1
 0 <= x(75)#75 <= 1
 0 <= x(76)#76 <= 1
 0 <= x(77)#77 <= 1
 0 <= x(78)#78 <= 1
 0 <= x(79)#79 <= 1
 0 <= x(80)#80 <= 1
 0 <= x(81)#81 <= 1
 0 <= x(82)#82 <= 1
 0 <= x(83)#83 <= 1
 0 <= x(84)#84 <= 1
 0 <= x(85)#85 <= 1
 0 <= x(86)#86 <= 1
 0 <= x(87)#87 <= 1
 0 <= x(88)#88 <= 1
 0 <= x(89)#89 <= 1
 0 <= x(90)#90 <= 1
 0 <= x(91)#91 <= 1
 0 <= x(92)#92 <= 1
 0 <= x(93)#93 <= 1
 0 <= x(94)#94 <= 1
 0 <= x(95)#95 <= 1
 0 <= x(96)#96 <= 1
 0 <= x(97)#97 <= 1
 0 <= x(98)#98 <= 1
 0 <= x(99)#99 <= 1
 0 <= x(100)#100 <= 1
 0 <= x(101)#101 <= 1
 0 <= x(102)#102 <= 1
 0 <= x(103)#103 <= 1
 0 <= x(104)#104 <= 1
 0 <= x(105)#105 <= 1
 0 <= x(106)#106 <= 1
 0 <= x(107)#107 <= 1
 0 <= x(108)#108 <= 1
 0 <= x(109)#109 <= 1
 0 <= x(110)#110 <= 1
 0 <= x(111)#111 <= 1
 0 <= x(112)#112 <= 1
 0 <= x(113)#113 <= 1
 0 <= x(114)#114 <= 1
 0 <= x(115)#115 <= 1
 0 <= x(116)#116 <= 1
 0 <= x(117)#117 <= 1
 0 <= x(118)#118 <= 1
 0 <= x(119)#119 <= 1
 0 <= x(120)#120 <= 1
 0 <= x(121)#121 <= 1
 0 <= x(122)#122 <= 1
 0 <= x(123)#123 <= 1
 0 <= x(124)#124 <= 1
 0 <= x(125)#125 <= 1
 0 <= x(126)#126 <= 1
 0 <= x(127)#127 <= 1
 0 <= x(128)#128 <= 1
 0 <= x(129)#129 <= 1
 0 <= x(130)#130 <= 1
 0 <= x(131)#131 <= 1
 0 <= x(132)#132 <= 1
 0 <= x(133)#133 <= 1
 0 <= x(134)#134 <= 1
 0 <= x(135)#135 <= 1
 0 <= x(136)#136 <= 1
 0 <= x(137)#137 <= 1
 0 <= x(138)#138 <= 1
 0 <= x(139)#139 <= 1
 0 <= x(140)#140 <= 1
 0 <= x(141)#141 <= 1
 0 <= x(142)#142 <= 1
 0 <= x(143)#143 <= 1
 0 <= x(144)#144 <= 1
 0 <= x(145)#145 <= 1
 0 <= x(146)#146 <= 1
 0 <= x(147)#147 <= 1
 0 <= x(148)#148 <= 1
 0 <= x(149)#149 <= 1
 0 <= x(150)#150 <= 1
 0 <= x(151)#151 <= 1
 0 <= x(152)#152 <= 1
 0 <= x(153)#153 <= 1
 0 <= x(154)#154 <= 1
 0 <= x(155)#155 <= 1
 0 <= x(156)#156 <= 1
 0 <= x(157)#157 <= 1
 0 <= x(158)#158 <= 1
 0 <= x(159)#159 <= 1
 0 <= x(160)#160 <= 1
 0 <= x(161)#161 <= 1
 0 <= x(162)#162 <= 1
 0 <= x(163)#163 <= 1
 0 <= x(164)#164 <= 1
 0 <= x(165)#165 <= 1
 0 <= x(166)#166 <= 1
 0 <= x(167)#167 <= 1
 0 <= x(168)#168 <= 1
 0 <= x(169)#169 <= 1
 0 <= x(170)#170 <= 1
 0 <= x(171)#171 <= 1
 0 <= x(172)#172 <= 1
 0 <= x(173)#173 <= 1
 0 <= x(174)#174 <= 1
 0 <= x(175)#175 <= 1
 0 <= x(176)#176 <= 1
 0 <= x(177)#177 <= 1
 0 <= x(178)#178 <= 1
 0 <= x(179)#179 <= 1
 0 <= x(180)#180 <= 1
 0 <= x(181)#181 <= 1
 0 <= x(182)#182 <= 1
 0 <= x(183)#183 <= 1
 0 <= x(184)#184 <= 1
 0 <= x(185)#185 <= 1
 0 <= x(186)#186 <= 1
 0 <= x(187)#187 <= 1
 0 <= x(188)#188 <= 1
 0 <= x(189)#189 <= 1
 0 <= x(190)#190 <= 1
 0 <= x(191)#191 <= 1
 0 <= x(192)#192 <= 1
 0 <= x(193)#193 <= 1
 0 <= x(194)#194 <= 1
 0 <= x(195)#195 <= 1
 0 <= x(196)#196 <= 1
 0 <= x(197)#197 <= 1
 0 <= x(198)#198 <= 1
 0 <= x(199)#199 <= 1
 0 <= x(200)#200 <= 1
 0 <= x(201)#201 <= 1
 0 <= x(202)#202 <= 1
 0 <= x(203)#203 <= 1
 0 <= x(204)#204 <= 1
 0 <= x(205)#205 <= 1
 0 <= x(206)#206 <= 1
 0 <= x(207)#207 <= 1
 0 <= x(208)#208 <= 1
 0 <= x(209)#209 <= 1
 0 <= x(210)#210 <= 1
 0 <= x(211)#211 <= 1
 0 <= x(212)#212 <= 1
 0 <= x(213)#213 <= 1
 0 <= x(214)#214 <= 1
 0 <= x(215)#215 <= 1
 0 <= x(216)#216 <= 1
 0 <= x(217)#217 <= 1
 0 <= x(218)#218 <= 1
 0 <= x(219)#219 <= 1
 0 <= x(220)#220 <= 1
 0 <= x(221)#221 <= 1
 0 <= x(222)#222 <= 1
 0 <= x(223)#223 <= 1
 0 <= x(224)#224 <= 1
 0 <= x(225)#225 <= 1
 0 <= x(226)#226 <= 1
 0 <= x(227)#227 <= 1
 0 <= x(228)#228 <= 1
 0 <= x(229)#229 <= 1
 0 <= x(230)#230 <= 1
 0 <= x(231)#231 <= 1
 0 <= x(232)#232 <= 1
 0 <= x(233)#233 <= 1
 0 <= x(234)#234 <= 1
 0 <= x(235)#235 <= 1
 0 <= x(236)#236 <= 1
 0 <= x(237)#237 <= 1
 0 <= x(238)#238 <= 1
 0 <= x(239)#239 <= 1
 0 <= x(240)#240 <= 1
 0 <= x(241)#241 <= 1
 0 <= x(242)#242 <= 1
 0 <= x(243)#243 <= 1
 0 <= x(244)#244 <= 1
 0 <= x(245)#245 <= 1
 0 <= x(246)#246 <= 1
 0 <= x(247)#247 <= 1
 0 <= x(248)#248 <= 1
 0 <= x(249)#249 <= 1
Generals
 x(0)#0  x(1)#1  x(2)#2  x(3)#3  x(4)#4  x(5)#5  x(6)#6  x(7)#7  x(8)#8 
 x(9)#9  x(10)#10  x(11)#11  x(12)#12  x(13)#13  x(14)#14  x(15)#15  x(16)#16 
 x(17)#17  x(18)#18  x(19)#19  x(20)#20  x(21)#21  x(22)#22  x(23)#23 
 x(24)#24  x(25)#25  x(26)#26  x(27)#27  x(28)#28  x(29)#29  x(30)#30 
 x(31)#31  x(32)#32  x(33)#33  x(34)#34  x(35)#35  x(36)#36  x(37)#37 
 x(38)#38  x(39)#39  x(40)#40  x(41)#41  x(42)#42  x(43)#43  x(44)#44 
 x(45)#45  x(46)#46  x(47)#47  x(48)#48  x(49)#49  x(50)#50  x(51)#51 
 x(52)#52  x(53)#53  x(54)#54  x(55)#55  x(56)#56  x(57)#57  x(58)#58 
 x(59)#59  x(60)#60  x(61)#61  x(62)#62  x(63)#63  x(64)#64  x(65)#65 
 x(66)#66  x(67)#67  x(68)#68  x(69)#69  x(70)#70  x(71)#71  x(72)#72 
 x(73)#73  x(74)#74  x(75)#75  x(76)#76  x(77)#77  x(78)#78  x(79)#79 
 x(80)#80  x(81)#81  x(82)#82  x(83)#83  x(84)#84  x(85)#85  x(86)#86 
 x(87)#87  x(88)#88  x(89)#89  x(90)#90  x(91)#91  x(92)#92  x(93)#93 
 x(94)#94  x(95)#95  x(96)#96  x(97)#97  x(98)#98  x(99)#99  x(100)#100 
 x(101)#101  x(102)#102  x(103)#103  x(104)#104  x(105)#105  x(106)#106 
 x(107)#107  x(108)#108  x(109)#109  x(110)#110  x(111)#111  x(112)#112 
 x(113)#113  x(114)#114  x(115)#115  x(116)#116  x(117)#117  x(118)#118 
 x(119)#119  x(120)#120  x(121)#121  x(122)#122  x(123)#123  x(124)#124 
 x(125)#125  x(126)#126  x(127)#127  x(128)#128  x(129)#129  x(130)#130 
 x(131)#131  x(132)#132  x(133)#133  x(134)#134  x(135)#135  x(136)#136 
 x(137)#137  x(138)#138  x(139)#139  x(140)#140  x(141)#141  x(142)#142 
 x(143)#143  x(144)#144  x(145)#145  x(146)#146  x(147)#147  x(148)#148 
 x(149)#149  x(150)#150  x(151)#151  x(152)#152  x(153)#153  x(154)#154 
 x(155)#155  x(156)#156  x(157)#157  x(158)#158  x(159)#159  x(160)#160 
 x(161)#161  x(162)#162  x(163)#163  x(164)#164  x(165)#165  x(166)#166 
 x(167)#167  x(168)#168  x(169)#169  x(170)#170  x(171)#171  x(172)#172 
 x(173)#173  x(174)#174  x(175)#175  x(176)#176  x(177)#177  x(178)#178 
 x(179)#179  x(180)#180  x(181)#181  x(182)#182  x(183)#183  x(184)#184 
 x(185)#185  x(186)#186  x(187)#187  x(188)#188  x(189)#189  x(190)#190 
 x(191)#191  x(192)#192  x(193)#193  x(194)#194  x(195)#195  x(196)#196 
 x(197)#197  x(198)#198  x(199)#199  x(200)#200  x(201)#201  x(202)#202 
 x(203)#203  x(204)#204  x(205)#205  x(206)#206  x(207)#207  x(208)#208 
 x(209)#209  x(210)#210  x(211)#211  x(212)#212  x(213)#213  x(214)#214 
 x(215)#215  x(216)#216  x(217)#217  x(218)#218  x(219)#219  x(220)#220 
 x(221)#221  x(222)#222  x(223)#223  x(224)#224  x(225)#225  x(226)#226 
 x(227)#227  x(228)#228  x(229)#229  x(230)#230  x(231)#231  x(232)#232 
 x(233)#233  x(234)#234  x(235)#235  x(236)#236  x(237)#237  x(238)#238 
 x(239)#239  x(240)#240  x(241)#241  x(242)#242  x(243)#243  x(244)#244 
 x(245)#245  x(246)#246  x(247)#247  x(248)#248  x(249)#249 
End
